COLUMNS

passenger_count
pickup_ID
dropoff_ID
request_time_sec
pickup_district
dropoff_district
LDuals
IDuals
vehicle_ID
pick_position
drop_position

REQUESTS_INFO
3      390       213       29432     52        266       248       248       8         1         2         
1      465       375       29480     199       119       122       122       21        1         2         
1      939       116       29406     291       9         265       265       45        1         2         
2      330       265       29486     127       299       186       186       46        1         3         
2      180       332       29478     178       87        154       154       89        1         3         
1      328       652       29484     299       189       186       186       107       1         3         
2      1135      1170      29474     50        291       128       128       114       1         2         
1      850       670       29476     291       280       139       139       189       1         4         
1      746       649       29453     290       189       147       147       228       1         2         
3      218       329       29463     87        127       135       135       251       1         2         
2      962       939       29462     291       291       215       215       265       1         2         
2      276       537       29458     87        189       168       168       273       1         2         
3      925       928       29448     290       290       220       220       290       1         2         
1      287       372       29473     299       119       173       173       315       1         3         
1      725       651       29421     290       189       188       188       338       1         2         
1      456       552       29484     52        189       136       136       385       1         3         
2      796       599       29417     290       280       244.5     244.5     403       1         2         
1      328       416       29479     299       100       206       206       424       1         2         
3      945       882       29387     50        290       289       289       463       1         2         
1      368       416       29473     299       100       220       220       471       1         2         
1      884       1032      29460     290       84        148       148       498       1         2         
1      929       627       29437     290       189       216       216       530       1         2         
1      453       533       29457     52        199       154       154       543       1         3         
1      887       669       29453     290       280       228       228       602       1         3         
3      850       939       29453     291       291       178       178       626       1         2         
1      208       412       29463     286       52        118       118       642       1         2         
2      366       604       29460     299       189       172       172       668       1         3         
3      838       624       29297     290       189       355       355       707       1         2         
3      925       928       29448     290       290       220       220       713       1         2         
1      927       925       29470     290       290       197       197       727       1         3         
1      839       695       29484     290       189       143       143       733       1         3         
1      873       676       29421     291       189       202       202       740       1         2         
1      795       744       29422     290       290       219       219       750       1         3         
3      840       1011      29462     290       84        198.5     198.5     750       2         4         
2      885       675       29461     290       189       190       190       754       1         3         
3      850       939       29453     291       291       178       178       805       1         2         
2      817       669       29410     290       280       245.5     245.5     815       1         2         
1      792       556       29482     290       199       98        98        819       1         4         
3      771       626       29456     290       189       173.5     173.5     840       1         2         
3      1107      720       29473     291       290       120       120       841       1         2         
1      1090      804       29414     291       291       224       224       850       1         2         
3      873       116       29465     291       9         160       160       895       1         3         
3      842       925       29414     290       290       269.5     269.5     896       1         2         
1      907       1065      29459     290       291       231       231       905       1         3         
2      969       721       29464     290       290       173       173       914       1         2         
1      947       1044      29465     290       291       187       187       959       1         4         
2      926       959       29449     290       291       248       248       959       2         3         
1      947       371       29469     290       52        183       183       969       1         2         
2      864       20        29436     290       98        243.5     243.5     973       1         4         
2      842       925       29414     290       290       276.5     276.5     973       2         3         
3      926       10        29436     290       98        261       261       976       1         2         
1      891       925       29470     291       290       168       168       977       1         2         
3      1207      650       29455     192       189       142       142       991       1         2         
1      941       457       29489     50        52        161       161       1010      1         3         
3      926       10        29436     290       98        240       240       1025      1         3         
1      1003      1170      29434     291       291       194       194       1047      1         2         
1      1031      1070      29469     50        50        190       190       1049      1         3         
1      848       1010      29461     291       290       207       207       1052      1         3         
3      796       599       29417     290       280       244.5     244.5     1076      1         2         
3      1004      915       29322     291       291       348       348       1091      1         2         
1      662       1032      29465     131       84        167       167       1105      1         2         
1      332       289       29487     87        127       132       132       1118      1         3         
1      884       577       29461     290       189       167       167       1127      1         3         
2      863       653       29453     290       189       237.5     237.5     1144      1         2         
3      840       1011      29462     290       84        198.5     198.5     1186      1         3         
1      804       782       29454     291       291       160       160       1222      1         2         
3      983       925       29418     291       290       215       215       1243      1         2         
2      883       649       29334     290       189       316       316       1295      1         2         
2      947       1011      29468     290       84        184       184       1322      1         2         
2      862       202       29389     290       87        284.5     284.5     1375      1         3         
2      818       699       29483     290       290       200.5     200.5     1386      1         4         
3      873       116       29465     291       9         160       160       1446      1         3         
1      288       552       29462     127       189       204       204       1448      1         2         
1      870       737       29465     291       189       159       159       1489      1         2         
1      887       904       29452     290       290       215.5     215.5     1719      1         2         
1      862       816       29454     290       290       219.5     219.5     1760      1         2         
1      950       760       29479     290       291       138       138       1802      1         5         
1      254       247       29466     87        266       152       152       1823      1         3         
1      527       438       29471     52        100       140       140       1887      1         2         
3      662       531       29470     131       189       162       162       1946      1         3         
1      216       183       29462     178       178       154       154       1959      1         2         
1      484       651       29463     189       189       114       114       1967      1         3         
1      275       285       29458     87        299       202       202       1991      1         2         
1      909       925       29490     290       290       0         0         0         0         0         
4      691       719       29490     131       189       0         0         0         0         0         
2      574       483       29490     189       189       0         0         0         0         0         
1      419       717       29490     168       189       0         0         0         0         0         
1      454       116       29490     52        9         0         0         0         0         0         
1      1109      724       29491     291       290       0         0         0         0         0         
1      325       711       29491     299       131       0         0         0         0         0         
1      969       697       29491     290       189       0         0         0         0         0         
1      1003      696       29491     291       189       0         0         0         0         0         
1      285       175       29491     299       266       0         0         0         0         0         
1      948       655       29491     290       189       0         0         0         0         0         
1      793       466       29491     290       199       0         0         0         0         0         
2      772       811       29492     290       290       0         0         0         0         0         
1      814       297       29492     290       277       0         0         0         0         0         
2      924       10        29492     290       98        0         0         0         0         0         
1      509       574       29492     199       189       0         0         0         0         0         
3      772       811       29492     290       290       0         0         0         0         0         
1      118       576       29492     286       189       0         0         0         0         0         
1      783       534       29492     50        199       0         0         0         0         0         
1      345       603       29492     299       189       0         0         0         0         0         
1      817       836       29492     290       290       0         0         0         0         0         
1      668       760       29492     280       291       0         0         0         0         0         
1      333       256       29493     119       87        0         0         0         0         0         
2      631       484       29493     189       189       0         0         0         0         0         
2      452       413       29493     52        52        0         0         0         0         0         
1      395       578       29493     100       189       0         0         0         0         0         
1      621       741       29493     280       50        0         0         0         0         0         
1      817       21        29493     290       98        0         0         0         0         0         
2      804       850       29493     291       291       0         0         0         0         0         
1      479       694       29493     52        189       0         0         0         0         0         
3      509       291       29494     199       87        0         0         0         0         0         
2      509       291       29494     199       87        0         0         0         0         0         
1      805       648       29494     291       189       0         0         0         0         0         
1      350       719       29494     127       189       0         0         0         0         0         
1      619       393       29494     131       52        0         0         0         0         0         
1      549       499       29494     52        52        0         0         0         0         0         
1      727       507       29495     290       189       0         0         0         0         0         
1      105       627       29495     287       189       0         0         0         0         0         
1      693       578       29495     280       189       0         0         0         0         0         
1      1087      980       29495     291       291       0         0         0         0         0         
1      395       697       29495     100       189       0         0         0         0         0         
2      1568      1530      29495     296       296       0         0         0         0         0         
3      155       694       29495     286       189       0         0         0         0         0         
3      155       694       29495     286       189       0         0         0         0         0         
2      349       675       29496     127       189       0         0         0         0         0         
3      349       675       29496     127       189       0         0         0         0         0         
1      864       460       29496     290       189       0         0         0         0         0         
1      560       745       29496     189       290       0         0         0         0         0         
1      813       990       29496     290       290       0         0         0         0         0         
3      413       694       29497     52        189       0         0         0         0         0         
2      413       694       29497     52        189       0         0         0         0         0         
1      1014      983       29497     84        291       0         0         0         0         0         
2      980       650       29497     291       189       0         0         0         0         0         
1      654       649       29497     189       189       0         0         0         0         0         
2      744       651       29497     290       189       0         0         0         0         0         
1      458       410       29498     52        52        0         0         0         0         0         
1      488       723       29498     199       290       0         0         0         0         0         
1      828       718       29499     291       189       0         0         0         0         0         
4      476       511       29500     52        199       0         0         0         0         0         
1      556       576       29501     199       189       0         0         0         0         0         
1      837       651       29501     290       189       0         0         0         0         0         
1      460       599       29502     189       280       0         0         0         0         0         
4      356       557       29502     119       189       0         0         0         0         0         
1      795       19        29502     290       98        0         0         0         0         0         
1      134       615       29502     9         131       0         0         0         0         0         
1      1168      675       29502     291       189       0         0         0         0         0         
1      352       555       29502     119       199       0         0         0         0         0         
1      275       173       29502     87        286       0         0         0         0         0         
1      277       646       29502     87        280       0         0         0         0         0         
1      1291      670       29503     129       280       0         0         0         0         0         
1      597       507       29503     131       189       0         0         0         0         0         
1      481       624       29503     189       189       0         0         0         0         0         
1      118       647       29503     286       280       0         0         0         0         0         
1      527       698       29504     52        189       0         0         0         0         0         
1      441       745       29505     168       290       0         0         0         0         0         
2      693       31        29505     280       9         0         0         0         0         0         
1      768       698       29505     290       189       0         0         0         0         0         
1      31        227       29505     9         266       0         0         0         0         0         
1      297       555       29506     277       199       0         0         0         0         0         
1      850       463       29506     291       168       0         0         0         0         0         
1      718       828       29506     189       291       0         0         0         0         0         
1      713       503       29507     131       52        0         0         0         0         0         
3      305       251       29507     299       127       0         0         0         0         0         
3      305       251       29507     299       127       0         0         0         0         0         
1      596       436       29507     131       100       0         0         0         0         0         
1      1446      1377      29507     129       129       0         0         0         0         0         
1      555       156       29508     199       286       0         0         0         0         0         
1      34        48        29508     98        98        0         0         0         0         0         
1      700       63        29508     290       98        0         0         0         0         0         
1      292       430       29508     87        52        0         0         0         0         0         
1      201       216       29508     87        178       0         0         0         0         0         
1      310       760       29508     127       291       0         0         0         0         0         
1      1131      646       29508     291       280       0         0         0         0         0         
1      664       648       29509     131       189       0         0         0         0         0         
1      526       711       29509     52        131       0         0         0         0         0         
1      509       272       29509     199       127       0         0         0         0         0         
1      990       698       29509     290       189       0         0         0         0         0         
1      881       1010      29509     290       290       0         0         0         0         0         
1      336       287       29509     277       299       0         0         0         0         0         
2      116       31        29509     9         9         0         0         0         0         0         
3      116       31        29509     9         9         0         0         0         0         0         
1      558       676       29510     189       189       0         0         0         0         0         
2      1150      1089      29510     291       291       0         0         0         0         0         
2      745       793       29510     290       290       0         0         0         0         0         
1      372       413       29511     119       52        0         0         0         0         0         
1      308       451       29511     127       999       0         0         0         0         0         
1      1024      1595      29511     291       296       0         0         0         0         0         
3      971       399       29511     290       168       0         0         0         0         0         
2      971       399       29511     290       168       0         0         0         0         0         
2      526       544       29512     52        52        0         0         0         0         0         
1      598       675       29512     189       189       0         0         0         0         0         
2      984       719       29512     291       189       0         0         0         0         0         
3      833       578       29512     50        189       0         0         0         0         0         
1      557       485       29512     189       189       0         0         0         0         0         
1      305       365       29512     299       299       0         0         0         0         0         
3      526       544       29512     52        52        0         0         0         0         0         
1      718       848       29513     189       291       0         0         0         0         0         
1      421       627       29513     168       189       0         0         0         0         0         
2      438       576       29513     100       189       0         0         0         0         0         
1      604       116       29513     189       9         0         0         0         0         0         
1      78        604       29513     9         189       0         0         0         0         0         
1      22        581       29513     98        189       0         0         0         0         0         
1      365       192       29513     299       266       0         0         0         0         0         
1      748       395       29513     290       100       0         0         0         0         0         
1      790       717       29514     290       189       0         0         0         0         0         
1      308       348       29514     127       299       0         0         0         0         0         
1      948       651       29514     290       189       0         0         0         0         0         
1      314       291       29514     119       87        0         0         0         0         0         
1      665       601       29514     131       189       0         0         0         0         0         
1      285       155       29514     299       286       0         0         0         0         0         
3      549       718       29514     52        189       0         0         0         0         0         
2      549       718       29514     52        189       0         0         0         0         0         
1      793       604       29515     290       189       0         0         0         0         0         
1      397       651       29515     168       189       0         0         0         0         0         
1      618       665       29515     131       131       0         0         0         0         0         
1      458       548       29515     52        52        0         0         0         0         0         
1      364       35        29515     299       98        0         0         0         0         0         
3      1151      651       29515     291       189       0         0         0         0         0         
2      1151      651       29515     291       189       0         0         0         0         0         
1      256       180       29516     87        178       0         0         0         0         0         
1      772       924       29516     290       290       0         0         0         0         0         
1      1026      894       29516     291       291       0         0         0         0         0         
1      727       903       29517     290       290       0         0         0         0         0         
2      555       834       29517     199       290       0         0         0         0         0         
3      555       834       29517     199       290       0         0         0         0         0         
2      1196      1137      29517     129       84        0         0         0         0         0         
1      792       695       29517     290       189       0         0         0         0         0         
1      439       399       29518     189       168       0         0         0         0         0         
1      672       488       29518     189       199       0         0         0         0         0         
1      235       331       29518     87        127       0         0         0         0         0         
1      484       647       29519     189       280       0         0         0         0         0         
3      688       116       29519     131       9         0         0         0         0         0         
1      598       626       29519     189       189       0         0         0         0         0         
